Gurobi Optimizer version 9.1.2 build v9.1.2rc0 (linux64)
Thread count: 36 physical cores, 72 logical processors, using up to 32 threads
Optimize a model with 12 rows, 57 columns and 590 nonzeros
Model fingerprint: 0xf32eec78
Model has 47 quadratic constraints
Coefficient statistics:
  Matrix range     [2e-05, 3e+00]
  QMatrix range    [1e+00, 1e+00]
  QLMatrix range   [1e+00, 1e+00]
  Objective range  [8e-03, 7e-01]
  Bounds range     [1e+00, 1e+00]
  RHS range        [1e+00, 1e+00]
Presolve removed 9 rows and 0 columns

Continuous model is non-convex -- solving as a MIP.

Presolve removed 9 rows and 0 columns
Presolve time: 0.00s
Presolved: 189 rows, 57 columns, 443 nonzeros
Presolved model has 47 bilinear constraint(s)
Variable types: 57 continuous, 0 integer (0 binary)

Root relaxation: objective -1.743721e+00, 44 iterations, 0.00 seconds

    Nodes    |    Current Node    |     Objective Bounds      |     Work
 Expl Unexpl |  Obj  Depth IntInf | Incumbent    BestBd   Gap | It/Node Time

     0     0   -1.74372    0   38          -   -1.74372      -     -    0s
H    0     0                       0.6147548   -1.74372   384%     -    0s
     0     0   -1.64739    0    1    0.61475   -1.64739   368%     -    0s
H    0     0                      -1.6450460   -1.64739  0.14%     -    0s
     0     0     cutoff    0        -1.64505   -1.64505  0.00%     -    0s

Cutting planes:
  RLT: 25
  BQP: 3

Explored 1 nodes (76 simplex iterations) in 0.01 seconds
Thread count was 32 (of 72 available processors)

Solution count 2: -1.64505 0.614755 
No other solutions better than -1.64505

Optimal solution found (tolerance 1.00e-04)
Best objective -1.645045978473e+00, best bound -1.645045978473e+00, gap 0.0000%

User-callback calls 78, time in user-callback 0.00 sec
Gurobi Optimizer version 9.1.2 build v9.1.2rc0 (linux64)
Thread count: 36 physical cores, 72 logical processors, using up to 32 threads
Optimize a model with 24 rows, 120 columns and 2480 nonzeros
Model fingerprint: 0xbee97d55
Model has 100 quadratic constraints
Coefficient statistics:
  Matrix range     [8e-06, 4e+00]
  QMatrix range    [1e+00, 1e+00]
  QLMatrix range   [1e+00, 1e+00]
  Objective range  [5e-03, 1e+00]
  Bounds range     [1e+00, 1e+00]
  RHS range        [1e+00, 1e+00]
Presolve removed 18 rows and 0 columns

Continuous model is non-convex -- solving as a MIP.

Presolve removed 18 rows and 0 columns
Presolve time: 0.00s
Presolved: 406 rows, 120 columns, 1113 nonzeros
Presolved model has 100 bilinear constraint(s)
Variable types: 120 continuous, 0 integer (0 binary)

Root relaxation: objective -7.421508e+00, 135 iterations, 0.00 seconds

    Nodes    |    Current Node    |     Objective Bounds      |     Work
 Expl Unexpl |  Obj  Depth IntInf | Incumbent    BestBd   Gap | It/Node Time

     0     0   -7.42151    0  100          -   -7.42151      -     -    0s
H    0     0                       1.0503171   -7.42151   807%     -    0s
     0     0   -5.16155    0  100    1.05032   -5.16155   591%     -    0s
H    0     0                       0.5208613   -5.16155  1091%     -    0s
     0     0   -5.15455    0  100    0.52086   -5.15455  1090%     -    0s
     0     0   -4.51583    0  100    0.52086   -4.51583   967%     -    0s
H    0     0                      -0.3199099   -4.51583  1312%     -    0s
     0     0   -4.45661    0  100   -0.31991   -4.45661  1293%     -    0s
     0     0   -4.32624    0  100   -0.31991   -4.32624  1252%     -    0s
     0     0   -4.31577    0  100   -0.31991   -4.31577  1249%     -    0s
     0     0   -4.26588    0  100   -0.31991   -4.26588  1233%     -    0s
     0     0   -4.26575    0  100   -0.31991   -4.26575  1233%     -    0s
     0     0   -4.25912    0  100   -0.31991   -4.25912  1231%     -    0s
     0     0   -4.25840    0  100   -0.31991   -4.25840  1231%     -    0s
H    0     0                      -1.9272927   -4.25840   121%     -    0s
H    0     0                      -2.7553161   -4.25840  54.6%     -    0s
H    0     0                      -2.7819749   -4.25840  53.1%     -    0s
     0     2   -4.25840    0  100   -2.78197   -4.25840  53.1%     -    0s
*  964   792              29      -2.9212062   -3.73678  27.9%  26.1    0s
* 1058   879              23      -3.1137243   -3.73678  20.0%  25.1    0s
* 1060   879              24      -3.1137270   -3.73678  20.0%  25.1    0s
* 1096   879              22      -3.3241537   -3.73678  12.4%  24.6    0s
* 1766   702              24      -3.3274912   -3.73678  12.3%  21.0    0s
* 1878   910              26      -3.3598256   -3.70124  10.2%  20.3    0s
* 1879   910              26      -3.3626140   -3.70124  10.1%  20.3    0s
* 1880   910              25      -3.3626626   -3.70124  10.1%  20.2    0s
* 1987   910              25      -3.3639829   -3.70124  10.0%  20.0    0s
* 1988   910              25      -3.3639853   -3.70124  10.0%  20.0    0s
* 2027   910              29      -3.3777235   -3.70124  9.58%  19.8    0s
* 2044   910              18      -3.3780377   -3.70124  9.57%  19.8    0s
* 2047   910              20      -3.3780651   -3.70124  9.57%  19.7    0s
* 2217   910              20      -3.4035157   -3.70124  8.75%  18.9    0s
* 2487   999              25      -3.4091342   -3.49765  2.60%  18.2    0s
* 2596   999              24      -3.4091522   -3.49765  2.60%  17.8    0s
* 2598   999              25      -3.4091532   -3.49765  2.60%  17.8    0s
* 2649   999              26      -3.4246317   -3.49765  2.13%  17.7    0s
* 2698  1309              30      -3.4257586   -3.49495  2.02%  17.5    0s
* 2702  1309              32      -3.4257984   -3.49495  2.02%  17.5    0s
* 2703  1309              32      -3.4258006   -3.49495  2.02%  17.5    0s
* 2753  1309              20      -3.4310070   -3.49130  1.76%  17.4    0s
* 2755  1309              21      -3.4310204   -3.49130  1.76%  17.3    0s
* 2858  1309              41      -3.4337759   -3.49130  1.68%  17.0    0s
* 2859  1309              41      -3.4338657   -3.49130  1.67%  17.0    0s
* 2861  1309              41      -3.4343998   -3.49130  1.66%  17.0    0s
* 2862  1309              41      -3.4344016   -3.49130  1.66%  17.0    0s
* 2864  1309              40      -3.4348878   -3.49130  1.64%  17.0    0s
* 3044  1309              33      -3.4353939   -3.49130  1.63%  16.5    0s
* 3045  1309              32      -3.4353991   -3.49130  1.63%  16.5    0s
* 3155  1309              29      -3.4363572   -3.49130  1.60%  16.2    0s
* 3156  1309              29      -3.4366862   -3.49130  1.59%  16.2    0s
* 3242  1767              29      -3.4498867   -3.49130  1.20%  15.9    0s
* 3429  1767              33      -3.4824463   -3.49130  0.25%  15.4    0s
* 3602  1767              28      -3.4838143   -3.49130  0.21%  15.0    0s
* 3609  1767              29      -3.4838202   -3.49130  0.21%  15.0    0s
* 3940  2000              35      -3.4846542   -3.48727  0.07%  14.2    0s
* 3941  2000              35      -3.4846581   -3.48727  0.07%  14.2    0s
* 3988  2000              35      -3.4846604   -3.48592  0.04%  14.1    0s
* 3989  2000              35      -3.4846644   -3.48592  0.04%  14.1    0s
* 4010  2000              35      -3.4846662   -3.48530  0.02%  14.0    0s
* 4061  2000              40      -3.4847473   -3.48494  0.01%  13.9    0s
* 4062  2000              40      -3.4847517   -3.48494  0.01%  13.9    0s
* 4087  2000              40      -3.4847748   -3.48492  0.00%  13.8    0s
* 4088  2000              40      -3.4847799   -3.48492  0.00%  13.8    0s
* 4138  2000              40      -3.4847940   -3.48489  0.00%  13.7    0s
* 4139  2000              40      -3.4847996   -3.48489  0.00%  13.7    0s
* 4148  2000              47      -3.4848167   -3.48488  0.00%  13.7    0s
* 4150  2000              45      -3.4848241   -3.48488  0.00%  13.7    0s
* 4210  2000              40      -3.4848296   -3.48486  0.00%  13.5    0s
* 4233  2000              40      -3.4848342   -3.48486  0.00%  13.4    0s
* 4286  2000              40      -3.4848375   -3.48485  0.00%  13.3    0s
* 4307  2000              40      -3.4848398   -3.48485  0.00%  13.3    0s
* 4327  2000              40      -3.4848414   -3.48485  0.00%  13.2    0s
* 4354  2000              40      -3.4848425   -3.48485  0.00%  13.2    0s
* 4378  2000              40      -3.4848433   -3.48485  0.00%  13.1    0s

Cutting planes:
  RLT: 83
  BQP: 15
  PSD: 14

Explored 4690 nodes (59112 simplex iterations) in 0.80 seconds
Thread count was 32 (of 72 available processors)

Solution count 10: -3.48484 -3.48484 -3.48484 ... -3.4848

Optimal solution found (tolerance 1.00e-04)
Best objective -3.484843250190e+00, best bound -3.484847041378e+00, gap 0.0001%

User-callback calls 9749, time in user-callback 0.00 sec



objective value: -3.4848432501902566
objective bound: -3.484847041377776
x_opt: [0.0, 1.0, 1.0, 1.0, 1.0, 0.0, 0.0, 0.0, 0.27950373380761123, 1.0, 0.0, 0.2251787753364276, 1.0, 1.0, 1.0, 1.7818295799281524e-5, 0.0, 0.0, 0.05309541778104013, 0.4949322983692935]
GUROBI solution time: 0.7952558994293213




